NAME:        LCVRP-N-15-k-6.vrp
COMMENT : 	"Generated by Salomons, Philip (2023)"
TYPE : 	CVRP
DIMENSION : 	16
EDGE_WEIGHT_TYPE : 	EUC_2D	
CAPACITY : 	238
NODE_COORD_SECTION
1    500    500
2    235    64
3    776    381
4    455    713
5    597    664
6    863    142
7    345    595
8    373    865
9    876    6
10    286    552
11    21    210
12    40    182
13    170    438
14    277    534
15    798    63
16    873    6
DEMAND_SECTION
1    0
2    86
3    61
4    100
5    90
6    58
7    95
8    92
9    71
10    90
11    99
12    74
13    98
14    51
15    65
16    64
DEPOT_SECTION
1
-1
EOF
